DATASET = "thpack2";
INSTANCE = "093";

WIDTH = 233;
HEIGHT = 220;
LENGTH = 587;

NO_OF_SHAPES = 5;
size = [|
  78,69,37 |
  115,90,58 |
  68,53,20 |
  119,71,47 |
  100,82,57 |
|];

verticality = [|
  0,1,1 |
  1,1,1 |
  0,0,1 |
  0,1,1 |
  1,1,1 |
|];

box_count = [
  12,
  13,
  16,
  26,
  18,
];
